(declare-const c_0 Real)
(declare-const c_1 Real)
(declare-const c_2 Real)
(declare-const c_3 Real)
(declare-const c_4 Real)
(declare-const c_5 Real)
(declare-const c_6 Real)
(declare-const c_7 Real)
(declare-const c_8 Real)
(declare-const c_9 Real)
(declare-const c_10 Real)
(declare-const c_11 Real)
(declare-const c_12 Real)
(declare-const c_13 Real)
(declare-const c_14 Real)
(declare-const c_15 Real)
(declare-const c_16 Real)
(declare-const c_17 Real)
(declare-const c_18 Real)
(declare-const c_19 Real)
(declare-const c_20 Real)
(declare-const c_21 Real)
(declare-const c_22 Real)
(declare-const c_23 Real)
(declare-const c_24 Real)
(declare-const c_25 Real)
(declare-const c_26 Real)
(declare-const c_27 Real)
(declare-const c_28 Real)
(declare-const c_29 Real)
(declare-const c_30 Real)
(declare-const c_31 Real)
(declare-const c_32 Real)
(declare-const c_33 Real)
(declare-const c_34 Real)
(declare-const c_35 Real)
(declare-const c_36 Real)
(declare-const c_37 Real)
(declare-const c_38 Real)
(declare-const c_39 Real)
(declare-const c_40 Real)
(declare-const c_41 Real)
(declare-const c_42 Real)
(declare-const c_43 Real)
(declare-const c_44 Real)
(declare-const c_45 Real)
(declare-const c_46 Real)
(declare-const c_47 Real)
(declare-const c_48 Real)
(declare-const c_49 Real)
(declare-const c_50 Real)
(declare-const c_51 Real)
(declare-const c_52 Real)
(declare-const c_53 Real)
(declare-const c_54 Real)
(declare-const c_55 Real)
(declare-const c_56 Real)
(declare-const c_57 Real)
(declare-const c_58 Real)
(declare-const c_59 Real)
(assert (forall ((d Real) (r_1 Real) (n Real) ) (=> (and (>= (+ (* 2 1) (* (- 1) r_1 ) ) 0) (>= (+ (* (- 1) 1) (* 1 n ) ) 0) (>= (+ (* (- 1) 1) (* 1 r_1 ) ) 0) (>= (+ (* (- 200) 1) (* 1 d ) (* 1 n ) (* (- 1) r_1 ) ) 0) (>= (+ (* 401 1) (* (- 1) d ) (* (- 2) n ) ) 0) (>= (+ (* 30 1) (* (- 1) d ) (* 1 r_1 ) ) 0) (>= (+ (* (- 201) 1) (* 1 d ) (* 1 n ) ) 0) (>= (+ (* 200 1) (* (- 1) n ) ) 0) (>= (+ (* (- 200) 1) (* 1 n ) ) 0) (>= (+ (* 1 1) (* (- 1) d ) ) 0) (>= (+ (* (- 1) 1) (* 1 d ) ) 0) (>= (+ (* 1 1) (* (- 1) r_1 ) ) 0) ) (>= (+ (* 1 c_0 ) (* 1 c_1 d ) (* 1 c_2 d n ) (* 1 c_3 d r_1 ) (* 1 c_4 d d ) (* 1 c_5 n ) (* 1 c_6 n r_1 ) (* 1 c_7 n n ) (* 1 c_8 r_1 ) (* 1 c_9 r_1 r_1 ) ) 0) )))
(assert (forall ((d Real) (r_1 Real) (n Real) ) (=> (and (>= (+ (* 30 1) (* (- 1) d ) ) 0) (>= (+ (* (- 1) 1) (* 1 n ) ) 0) (>= (+ (* 2 1) (* (- 1) r_1 ) ) 0) (>= (+ (* (- 1) 1) (* 1 r_1 ) ) 0) (>= (+ (* (- 200) 1) (* 1 d ) (* 1 n ) (* (- 1) r_1 ) ) 0) (>= (+ (* 401 1) (* (- 1) d ) (* (- 2) n ) ) 0) (>= (+ (* 30 1) (* (- 1) d ) (* 1 r_1 ) ) 0) (>= (+ (* (- 201) 1) (* 1 d ) (* 1 n ) ) 0) ) (>= (+ (* (- 1) 1) (* 1 c_0 ) (* 1 c_1 d ) (* (- 1) c_10 ) (* (- 1) c_11 d ) (* (- 1) c_12 d n ) (* (- 1) c_13 d r_1 ) (* (- 1) c_14 d d ) (* (- 1) c_15 n ) (* (- 1) c_16 n r_1 ) (* (- 1) c_17 n n ) (* (- 1) c_18 r_1 ) (* (- 1) c_19 r_1 r_1 ) (* 1 c_2 d n ) (* 1 c_3 d r_1 ) (* 1 c_4 d d ) (* 1 c_5 n ) (* 1 c_6 n r_1 ) (* 1 c_7 n n ) (* 1 c_8 r_1 ) (* 1 c_9 r_1 r_1 ) ) 0) )))
(assert (forall ((d Real) (r_1 Real) (n Real) ) (=> (and (>= (+ (* 30 1) (* (- 1) d ) ) 0) (>= (+ (* (- 1) 1) (* 1 n ) ) 0) (>= (+ (* 2 1) (* (- 1) r_1 ) ) 0) (>= (+ (* (- 1) 1) (* 1 r_1 ) ) 0) (>= (+ (* (- 200) 1) (* 1 d ) (* 1 n ) (* (- 1) r_1 ) ) 0) (>= (+ (* 401 1) (* (- 1) d ) (* (- 2) n ) ) 0) (>= (+ (* 30 1) (* (- 1) d ) (* 1 r_1 ) ) 0) (>= (+ (* (- 201) 1) (* 1 d ) (* 1 n ) ) 0) ) (>= (+ (* 1 c_10 ) (* 1 c_11 d ) (* 1 c_12 d n ) (* 1 c_13 d r_1 ) (* 1 c_14 d d ) (* 1 c_15 n ) (* 1 c_16 n r_1 ) (* 1 c_17 n n ) (* 1 c_18 r_1 ) (* 1 c_19 r_1 r_1 ) ) 0) )))
(assert (forall ((d Real) (r_1 Real) (n Real) ) (=> (and (>= (+ (* (- 30) 1) (* 1 d ) ) 0) (>= (+ (* 2 1) (* (- 1) r_1 ) ) 0) (>= (+ (* (- 1) 1) (* 1 n ) ) 0) (>= (+ (* (- 1) 1) (* 1 r_1 ) ) 0) (>= (+ (* (- 200) 1) (* 1 d ) (* 1 n ) (* (- 1) r_1 ) ) 0) (>= (+ (* 401 1) (* (- 1) d ) (* (- 2) n ) ) 0) (>= (+ (* 30 1) (* (- 1) d ) (* 1 r_1 ) ) 0) (>= (+ (* (- 201) 1) (* 1 d ) (* 1 n ) ) 0) ) (>= (+ (* (- 1) 1) (* 1 c_0 ) (* 1 c_1 d ) (* 1 c_2 d n ) (* 1 c_3 d r_1 ) (* 1 c_4 d d ) (* 1 c_5 n ) (* (- 1) c_50 ) (* (- 1) c_51 d ) (* (- 1) c_52 d n ) (* (- 1) c_53 d r_1 ) (* (- 1) c_54 d d ) (* (- 1) c_55 n ) (* (- 1) c_56 n r_1 ) (* (- 1) c_57 n n ) (* (- 1) c_58 r_1 ) (* (- 1) c_59 r_1 r_1 ) (* 1 c_6 n r_1 ) (* 1 c_7 n n ) (* 1 c_8 r_1 ) (* 1 c_9 r_1 r_1 ) ) 0) )))
(assert (forall ((d Real) (r_1 Real) (n Real) ) (=> (and (>= (+ (* (- 30) 1) (* 1 d ) ) 0) (>= (+ (* 2 1) (* (- 1) r_1 ) ) 0) (>= (+ (* (- 1) 1) (* 1 n ) ) 0) (>= (+ (* (- 1) 1) (* 1 r_1 ) ) 0) (>= (+ (* (- 200) 1) (* 1 d ) (* 1 n ) (* (- 1) r_1 ) ) 0) (>= (+ (* 401 1) (* (- 1) d ) (* (- 2) n ) ) 0) (>= (+ (* 30 1) (* (- 1) d ) (* 1 r_1 ) ) 0) (>= (+ (* (- 201) 1) (* 1 d ) (* 1 n ) ) 0) ) (>= (+ (* 1 c_50 ) (* 1 c_51 d ) (* 1 c_52 d n ) (* 1 c_53 d r_1 ) (* 1 c_54 d d ) (* 1 c_55 n ) (* 1 c_56 n r_1 ) (* 1 c_57 n n ) (* 1 c_58 r_1 ) (* 1 c_59 r_1 r_1 ) ) 0) )))
(assert (forall ((d Real) (r_1 Real) (n Real) ) (=> (and (>= (* (- 1) n ) 0) (>= (+ (* 2 1) (* (- 1) r_1 ) ) 0) (>= (+ (* (- 1) 1) (* 1 n ) ) 0) (>= (+ (* (- 1) 1) (* 1 r_1 ) ) 0) (>= (+ (* (- 200) 1) (* 1 d ) (* 1 n ) (* (- 1) r_1 ) ) 0) (>= (+ (* 401 1) (* (- 1) d ) (* (- 2) n ) ) 0) (>= (+ (* 30 1) (* (- 1) d ) (* 1 r_1 ) ) 0) (>= (+ (* (- 201) 1) (* 1 d ) (* 1 n ) ) 0) ) (>= (+ (* (- 1) 1) (* 1 c_0 ) (* 1 c_1 d ) (* 1 c_2 d n ) (* 1 c_3 d r_1 ) (* 1 c_4 d d ) (* 1 c_5 n ) (* (- 1) c_50 ) (* (- 1) c_51 d ) (* (- 1) c_52 d n ) (* (- 1) c_53 d r_1 ) (* (- 1) c_54 d d ) (* (- 1) c_55 n ) (* (- 1) c_56 n r_1 ) (* (- 1) c_57 n n ) (* (- 1) c_58 r_1 ) (* (- 1) c_59 r_1 r_1 ) (* 1 c_6 n r_1 ) (* 1 c_7 n n ) (* 1 c_8 r_1 ) (* 1 c_9 r_1 r_1 ) ) 0) )))
(assert (forall ((d Real) (r_1 Real) (n Real) ) (=> (and (>= (* (- 1) n ) 0) (>= (+ (* 2 1) (* (- 1) r_1 ) ) 0) (>= (+ (* (- 1) 1) (* 1 n ) ) 0) (>= (+ (* (- 1) 1) (* 1 r_1 ) ) 0) (>= (+ (* (- 200) 1) (* 1 d ) (* 1 n ) (* (- 1) r_1 ) ) 0) (>= (+ (* 401 1) (* (- 1) d ) (* (- 2) n ) ) 0) (>= (+ (* 30 1) (* (- 1) d ) (* 1 r_1 ) ) 0) (>= (+ (* (- 201) 1) (* 1 d ) (* 1 n ) ) 0) ) (>= (+ (* 1 c_50 ) (* 1 c_51 d ) (* 1 c_52 d n ) (* 1 c_53 d r_1 ) (* 1 c_54 d d ) (* 1 c_55 n ) (* 1 c_56 n r_1 ) (* 1 c_57 n n ) (* 1 c_58 r_1 ) (* 1 c_59 r_1 r_1 ) ) 0) )))
(assert (forall ((d Real) (r_1 Real) (n Real) ) (=> (and (>= (+ (* 401 1) (* (- 1) d ) (* (- 2) n ) ) 0) (>= (+ (* 30 1) (* (- 1) d ) ) 0) (>= (+ (* 2 1) (* (- 1) r_1 ) ) 0) (>= (+ (* (- 1) 1) (* 1 r_1 ) ) 0) (>= (+ (* (- 200) 1) (* 1 d ) (* 1 n ) (* (- 1) r_1 ) ) 0) (>= (+ (* (- 201) 1) (* 1 d ) (* 1 n ) ) 0) ) (>= (+ (* (- 1) 1) (* 1 c_10 ) (* 1 c_11 d ) (* 1 c_12 d n ) (* 1 c_13 d r_1 ) (* 1 c_14 d d ) (* 1 c_15 n ) (* 1 c_16 n r_1 ) (* 1 c_17 n n ) (* 1 c_18 r_1 ) (* 1 c_19 r_1 r_1 ) (* (- 1) c_20 ) (* (- 1) c_21 d ) (* 1 c_22 d ) (* (- 1) c_22 d n ) (* (- 1) c_23 d r_1 ) (* (- 1) c_24 d d ) (* 1 c_25 ) (* (- 1) c_25 n ) (* (- 1) c_26 n r_1 ) (* 1 c_26 r_1 ) (* (- 1) c_27 ) (* 2 c_27 n ) (* (- 1) c_27 n n ) (* (- 1) c_28 r_1 ) (* (- 1) c_29 r_1 r_1 ) ) 0) )))
(assert (forall ((d Real) (r_1 Real) (n Real) ) (=> (and (>= (+ (* 401 1) (* (- 1) d ) (* (- 2) n ) ) 0) (>= (+ (* 30 1) (* (- 1) d ) ) 0) (>= (+ (* 2 1) (* (- 1) r_1 ) ) 0) (>= (+ (* (- 1) 1) (* 1 r_1 ) ) 0) (>= (+ (* (- 200) 1) (* 1 d ) (* 1 n ) (* (- 1) r_1 ) ) 0) (>= (+ (* (- 201) 1) (* 1 d ) (* 1 n ) ) 0) ) (>= (+ (* 1 c_20 ) (* 1 c_21 d ) (* 1 c_22 d n ) (* 1 c_23 d r_1 ) (* 1 c_24 d d ) (* 1 c_25 n ) (* 1 c_26 n r_1 ) (* 1 c_27 n n ) (* 1 c_28 r_1 ) (* 1 c_29 r_1 r_1 ) ) 0) )))
(assert (forall ((d Real) (r_1 Real) (n Real) ) (=> (and (>= (+ (* 399 1) (* (- 1) d ) (* (- 2) n ) ) 0) (>= (+ (* 30 1) (* (- 1) d ) ) 0) (>= (+ (* 2 1) (* (- 1) r_1 ) ) 0) (>= (+ (* (- 1) 1) (* 1 r_1 ) ) 0) (>= (+ (* (- 199) 1) (* 1 d ) (* 1 n ) (* (- 1) r_1 ) ) 0) (>= (+ (* (- 200) 1) (* 1 d ) (* 1 n ) ) 0) ) (>= (+ (* (- 1) 1) (* 1 c_20 ) (* 1 c_21 d ) (* 1 c_22 d n ) (* 1 c_23 d r_1 ) (* 1 c_24 d d ) (* 1 c_25 n ) (* 1 c_26 n r_1 ) (* 1 c_27 n n ) (* 1 c_28 r_1 ) (* 1 c_29 r_1 r_1 ) (* (- 1) c_30 ) (* (- 1) c_31 d ) (* (- 1) c_32 d n ) (* (/ (- 3) 2) c_33 d ) (* (- 1) c_34 d d ) (* (- 1) c_35 n ) (* (/ (- 3) 2) c_36 n ) (* (- 1) c_37 n n ) (* (/ (- 3) 2) c_38 ) (* (/ (- 7) 3) c_39 ) ) 0) )))
(assert (forall ((d Real) (r_1 Real) (n Real) ) (=> (and (>= (+ (* 399 1) (* (- 1) d ) (* (- 2) n ) ) 0) (>= (+ (* 30 1) (* (- 1) d ) ) 0) (>= (+ (* 2 1) (* (- 1) r_1 ) ) 0) (>= (+ (* (- 1) 1) (* 1 r_1 ) ) 0) (>= (+ (* (- 199) 1) (* 1 d ) (* 1 n ) (* (- 1) r_1 ) ) 0) (>= (+ (* (- 200) 1) (* 1 d ) (* 1 n ) ) 0) ) (>= (+ (* 1 c_30 ) (* 1 c_31 d ) (* 1 c_32 d n ) (* (/ 3 2) c_33 d ) (* 1 c_34 d d ) (* 1 c_35 n ) (* (/ 3 2) c_36 n ) (* 1 c_37 n n ) (* (/ 3 2) c_38 ) (* (/ 7 3) c_39 ) ) 0) )))
(assert (forall ((d Real) (r_1 Real) (n Real) ) (=> (and (>= (+ (* (- 1) 1) (* 1 r_1 ) ) 0) (>= (+ (* (- 200) 1) (* 1 d ) (* 1 n ) ) 0) (>= (+ (* 2 1) (* (- 1) r_1 ) ) 0) (>= (+ (* 30 1) (* (- 1) d ) ) 0) (>= (+ (* 399 1) (* (- 1) d ) (* (- 2) n ) ) 0) (>= (+ (* 401 1) (* (- 1) d ) (* (- 2) n ) (* (- 1) r_1 ) ) 0) (>= (+ (* 199 1) (* (- 1) n ) ) 0) (>= (+ (* (- 201) 1) (* 1 d ) (* 1 n ) (* 1 r_1 ) ) 0) ) (>= (+ (* (- 1) 1) (* 1 c_30 ) (* 1 c_31 d ) (* 1 c_32 d n ) (* 1 c_33 d r_1 ) (* 1 c_34 d d ) (* 1 c_35 n ) (* 1 c_36 n r_1 ) (* 1 c_37 n n ) (* 1 c_38 r_1 ) (* 1 c_39 r_1 r_1 ) (* (- 1) c_40 ) (* (- 1) c_41 d ) (* (- 1) c_41 r_1 ) (* (- 1) c_42 d n ) (* (- 1) c_42 n r_1 ) (* (- 1) c_43 d r_1 ) (* (- 1) c_43 r_1 r_1 ) (* (- 2) c_44 d r_1 ) (* (- 1) c_44 d d ) (* (- 1) c_44 r_1 r_1 ) (* (- 1) c_45 n ) (* (- 1) c_46 n r_1 ) (* (- 1) c_47 n n ) (* (- 1) c_48 r_1 ) (* (- 1) c_49 r_1 r_1 ) ) 0) )))
(assert (forall ((d Real) (r_1 Real) (n Real) ) (=> (and (>= (+ (* (- 1) 1) (* 1 r_1 ) ) 0) (>= (+ (* (- 200) 1) (* 1 d ) (* 1 n ) ) 0) (>= (+ (* 2 1) (* (- 1) r_1 ) ) 0) (>= (+ (* 30 1) (* (- 1) d ) ) 0) (>= (+ (* 399 1) (* (- 1) d ) (* (- 2) n ) ) 0) (>= (+ (* 401 1) (* (- 1) d ) (* (- 2) n ) (* (- 1) r_1 ) ) 0) (>= (+ (* 199 1) (* (- 1) n ) ) 0) (>= (+ (* (- 201) 1) (* 1 d ) (* 1 n ) (* 1 r_1 ) ) 0) ) (>= (+ (* 1 c_40 ) (* 1 c_41 d ) (* 1 c_42 d n ) (* 1 c_43 d r_1 ) (* 1 c_44 d d ) (* 1 c_45 n ) (* 1 c_46 n r_1 ) (* 1 c_47 n n ) (* 1 c_48 r_1 ) (* 1 c_49 r_1 r_1 ) ) 0) )))
(assert (forall ((d Real) (r_1 Real) (n Real) ) (=> (and (>= (+ (* (- 1) 1) (* 1 r_1 ) ) 0) (>= (+ (* (- 200) 1) (* 1 d ) (* 1 n ) (* (- 1) r_1 ) ) 0) (>= (+ (* 2 1) (* (- 1) r_1 ) ) 0) (>= (+ (* 30 1) (* (- 1) d ) (* 1 r_1 ) ) 0) (>= (+ (* 399 1) (* (- 1) d ) (* (- 2) n ) (* 1 r_1 ) ) 0) (>= (+ (* 401 1) (* (- 1) d ) (* (- 2) n ) ) 0) (>= (+ (* 199 1) (* (- 1) n ) ) 0) (>= (+ (* (- 201) 1) (* 1 d ) (* 1 n ) ) 0) ) (>= (+ (* (- 1) 1) (* (- 1) c_0 ) (* (- 1) c_1 d ) (* (- 1) c_2 d n ) (* (- 1) c_3 d r_1 ) (* (- 1) c_4 d d ) (* 1 c_40 ) (* 1 c_41 d ) (* 1 c_42 d n ) (* 1 c_43 d r_1 ) (* 1 c_44 d d ) (* 1 c_45 n ) (* 1 c_46 n r_1 ) (* 1 c_47 n n ) (* 1 c_48 r_1 ) (* 1 c_49 r_1 r_1 ) (* (- 1) c_5 n ) (* (- 1) c_6 n r_1 ) (* (- 1) c_7 n n ) (* (- 1) c_8 r_1 ) (* (- 1) c_9 r_1 r_1 ) ) 0) )))
(assert (forall ((d Real) (r_1 Real) (n Real) ) (=> (and (>= (+ (* (- 1) 1) (* 1 r_1 ) ) 0) (>= (+ (* (- 200) 1) (* 1 d ) (* 1 n ) (* (- 1) r_1 ) ) 0) (>= (+ (* 2 1) (* (- 1) r_1 ) ) 0) (>= (+ (* 30 1) (* (- 1) d ) (* 1 r_1 ) ) 0) (>= (+ (* 399 1) (* (- 1) d ) (* (- 2) n ) (* 1 r_1 ) ) 0) (>= (+ (* 401 1) (* (- 1) d ) (* (- 2) n ) ) 0) (>= (+ (* 199 1) (* (- 1) n ) ) 0) (>= (+ (* (- 201) 1) (* 1 d ) (* 1 n ) ) 0) ) (>= (+ (* 1 c_0 ) (* 1 c_1 d ) (* 1 c_2 d n ) (* 1 c_3 d r_1 ) (* 1 c_4 d d ) (* 1 c_5 n ) (* 1 c_6 n r_1 ) (* 1 c_7 n n ) (* 1 c_8 r_1 ) (* 1 c_9 r_1 r_1 ) ) 0) )))
(check-sat)
(get-model)

